sat
(:max-memory          18.43
 :memory              18.33
 :nlsat-arith-var     4
 :nlsat-atoms         7
 :nlsat-bool-var      1
 :nlsat-clauses       7
 :nlsat-propagations  7
 :nlsat-stages        5
 :num-allocs          50826
 :rlimit-count        1196
 :solve-eqs-elim-vars 8
 :solve-eqs-steps     18
 :time                0.00
 :total-time          0.02)
